nNurses = 149;
nHours = 28;
minHours = 8;
maxHours = 10;
maxConsec = 7;
maxPresence = 21;
demand = [19, 17, 12, 15, 11, 15, 17, 22, 20, 21, 21, 18, 18, 18, 16, 15, 10, 14, 12, 8, 5, 5, 5, 5, 8, 7, 6, 7];
